100 81744

 278 489
476 259
471 755
389 722
821 141
452 878
604 181
896 798
867 457
891 329
271 159
35 168
262 662
279 551
910 123
650 113
82 73
136 744
156 712
631 59
736 561
860 85
941 904
202 908
310 699
241 927
359 812
915 829
576 570
739 307
491 218
29 328
65 629
538 173
719 259
216 469
722 234
811 589
412 924
747 749
405 667
679 583
764 488
992 187
346 895
412 249
166 92
205 751
694 176
918 372
395 29
180 138
286 174
456 55
291 657
234 838
736 374
8 875
540 214
794 326
267 151
604 621
669 420
656 614
446 762
347 546
836 628
759 936
322 300
104 360
72 718
95 612
583 179
52 377
337 468
754 420
295 179
764 925
746 763
246 482
729 681
748 898
398 137
211 251
522 543
922 800
640 37
173 985
683 455
428 360
592 293
735 175
515 792
814 956
723 414
616 953
151 824
836 482
936 675
137 435
